
(set-logic HORN)
(declare-rel assign_25_5_193_abs (Int Int Int Int Int Int Int Int Int Int))
(declare-rel assert_24_5_184_abs (Int Int Int Int Int Int Int Int Int Int))
(declare-rel assert_23_12_166_abs (Int Int Int Int Int Int Int Int Int Int))
(declare-rel while_22_1_196_abs (Int Int Int Int Int Int Int Int Int Int))
(declare-rel assign_21_1_128_abs (Int Int Int Int Int Int Int Int Int Int))
(declare-rel assign_18_5_119_abs (Int Int Int Int Int Int Int Int Int Int))
(declare-rel arrayassign_17_5_110_abs (Int Int Int Int Int Int Int Int Int Int))
(declare-rel assert_16_12_96_abs (Int Int Int Int Int Int Int Int Int Int))
(declare-rel while_15_1_122_abs (Int Int Int Int Int Int Int Int Int Int))
(declare-rel assign_14_1_58_abs (Int Int Int Int Int Int Int Int Int Int))
(declare-rel assign_12_1_52_abs (Int Int Int Int Int Int Int Int Int Int))
(declare-rel end_abs (Int Int Int Int Int Int Int Int Int Int))
(declare-rel start_abs (Int Int Int Int Int Int Int Int Int Int));Number of predicates (nodes) = 13
;Number of variables = 4
;Number of clauses = 18
;
(assert (forall ( (vacker_1 Int) (vacker_0 Int) (vacker_11 Int) (vacker_01 Int) (N Int) (i Int) (i1 Int) (i2 Int) (i3 Int) (i4 Int)) (=> (and (=> (= i3 i4) (= vacker_0 vacker_1)) (=> (= i1 i2) (= vacker_01 vacker_11))) (start_abs i4 vacker_0 i3 vacker_0 i2 vacker_01 i1 vacker_01 N i))))
(assert (forall ( (i Int) (N Int) (vacker_1 Int) (vacker_0 Int) (vacker_11 Int) (vacker_01 Int) (i1 Int) (i2 Int) (i3 Int) (i4 Int)) (=> (and (=> (= i1 i2) (= vacker_0 vacker_1)) (=> (= i3 i4) (= vacker_01 vacker_11)) (start_abs i3 vacker_01 i3 vacker_01 i1 vacker_0 i1 vacker_0 N i) (start_abs i3 vacker_01 i3 vacker_01 i1 vacker_0 i2 vacker_0 N i) (start_abs i3 vacker_01 i3 vacker_01 i2 vacker_0 i1 vacker_0 N i) (start_abs i3 vacker_01 i3 vacker_01 i2 vacker_0 i2 vacker_0 N i) (start_abs i3 vacker_01 i4 vacker_01 i1 vacker_0 i1 vacker_0 N i) (start_abs i3 vacker_01 i4 vacker_01 i1 vacker_0 i2 vacker_0 N i) (start_abs i3 vacker_01 i4 vacker_01 i2 vacker_0 i1 vacker_0 N i) (start_abs i3 vacker_01 i4 vacker_01 i2 vacker_0 i2 vacker_0 N i) (start_abs i4 vacker_01 i3 vacker_01 i1 vacker_0 i1 vacker_0 N i) (start_abs i4 vacker_01 i3 vacker_01 i1 vacker_0 i2 vacker_0 N i) (start_abs i4 vacker_01 i3 vacker_01 i2 vacker_0 i1 vacker_0 N i) (start_abs i4 vacker_01 i3 vacker_01 i2 vacker_0 i2 vacker_0 N i) (start_abs i4 vacker_01 i4 vacker_01 i1 vacker_0 i1 vacker_0 N i) (start_abs i4 vacker_01 i4 vacker_01 i1 vacker_0 i2 vacker_0 N i) (start_abs i4 vacker_01 i4 vacker_01 i2 vacker_0 i1 vacker_0 N i) (start_abs i4 vacker_01 i4 vacker_01 i2 vacker_0 i2 vacker_0 N i)) (assign_12_1_52_abs i4 vacker_01 i3 vacker_01 i2 vacker_0 i1 vacker_0 N i))))
;
;(assign)  N := Support.random()
(assert (forall ( (rnd Int) (i Int) (N Int) (vacker_1 Int) (vacker_0 Int) (vacker_11 Int) (vacker_01 Int) (i1 Int) (i2 Int) (i3 Int) (i4 Int)) (=> (and (=> (= i1 i2) (= vacker_0 vacker_1)) (=> (= i3 i4) (= vacker_01 vacker_11)) (assign_12_1_52_abs i3 vacker_01 i3 vacker_01 i1 vacker_0 i1 vacker_0 N i) (assign_12_1_52_abs i3 vacker_01 i3 vacker_01 i1 vacker_0 i2 vacker_0 N i) (assign_12_1_52_abs i3 vacker_01 i3 vacker_01 i2 vacker_0 i1 vacker_0 N i) (assign_12_1_52_abs i3 vacker_01 i3 vacker_01 i2 vacker_0 i2 vacker_0 N i) (assign_12_1_52_abs i3 vacker_01 i4 vacker_01 i1 vacker_0 i1 vacker_0 N i) (assign_12_1_52_abs i3 vacker_01 i4 vacker_01 i1 vacker_0 i2 vacker_0 N i) (assign_12_1_52_abs i3 vacker_01 i4 vacker_01 i2 vacker_0 i1 vacker_0 N i) (assign_12_1_52_abs i3 vacker_01 i4 vacker_01 i2 vacker_0 i2 vacker_0 N i) (assign_12_1_52_abs i4 vacker_01 i3 vacker_01 i1 vacker_0 i1 vacker_0 N i) (assign_12_1_52_abs i4 vacker_01 i3 vacker_01 i1 vacker_0 i2 vacker_0 N i) (assign_12_1_52_abs i4 vacker_01 i3 vacker_01 i2 vacker_0 i1 vacker_0 N i) (assign_12_1_52_abs i4 vacker_01 i3 vacker_01 i2 vacker_0 i2 vacker_0 N i) (assign_12_1_52_abs i4 vacker_01 i4 vacker_01 i1 vacker_0 i1 vacker_0 N i) (assign_12_1_52_abs i4 vacker_01 i4 vacker_01 i1 vacker_0 i2 vacker_0 N i) (assign_12_1_52_abs i4 vacker_01 i4 vacker_01 i2 vacker_0 i1 vacker_0 N i) (assign_12_1_52_abs i4 vacker_01 i4 vacker_01 i2 vacker_0 i2 vacker_0 N i)) (assign_14_1_58_abs i4 vacker_01 i3 vacker_01 i2 vacker_0 i1 vacker_0 rnd i))))
;
;(assign)  i := 0
(assert (forall ( (i Int) (N Int) (vacker_1 Int) (vacker_0 Int) (vacker_11 Int) (vacker_01 Int) (i1 Int) (i2 Int) (i3 Int) (i4 Int)) (=> (and (=> (= i1 i2) (= vacker_0 vacker_1)) (=> (= i3 i4) (= vacker_01 vacker_11)) (assign_14_1_58_abs i3 vacker_01 i3 vacker_01 i1 vacker_0 i1 vacker_0 N i) (assign_14_1_58_abs i3 vacker_01 i3 vacker_01 i1 vacker_0 i2 vacker_0 N i) (assign_14_1_58_abs i3 vacker_01 i3 vacker_01 i2 vacker_0 i1 vacker_0 N i) (assign_14_1_58_abs i3 vacker_01 i3 vacker_01 i2 vacker_0 i2 vacker_0 N i) (assign_14_1_58_abs i3 vacker_01 i4 vacker_01 i1 vacker_0 i1 vacker_0 N i) (assign_14_1_58_abs i3 vacker_01 i4 vacker_01 i1 vacker_0 i2 vacker_0 N i) (assign_14_1_58_abs i3 vacker_01 i4 vacker_01 i2 vacker_0 i1 vacker_0 N i) (assign_14_1_58_abs i3 vacker_01 i4 vacker_01 i2 vacker_0 i2 vacker_0 N i) (assign_14_1_58_abs i4 vacker_01 i3 vacker_01 i1 vacker_0 i1 vacker_0 N i) (assign_14_1_58_abs i4 vacker_01 i3 vacker_01 i1 vacker_0 i2 vacker_0 N i) (assign_14_1_58_abs i4 vacker_01 i3 vacker_01 i2 vacker_0 i1 vacker_0 N i) (assign_14_1_58_abs i4 vacker_01 i3 vacker_01 i2 vacker_0 i2 vacker_0 N i) (assign_14_1_58_abs i4 vacker_01 i4 vacker_01 i1 vacker_0 i1 vacker_0 N i) (assign_14_1_58_abs i4 vacker_01 i4 vacker_01 i1 vacker_0 i2 vacker_0 N i) (assign_14_1_58_abs i4 vacker_01 i4 vacker_01 i2 vacker_0 i1 vacker_0 N i) (assign_14_1_58_abs i4 vacker_01 i4 vacker_01 i2 vacker_0 i2 vacker_0 N i)) (while_15_1_122_abs i4 vacker_01 i3 vacker_01 i2 vacker_0 i1 vacker_0 N 0))))
;
;(while)   while((i<N))
(assert (forall ( (vacker_1 Int) (vacker_0 Int) (vacker_11 Int) (vacker_01 Int) (N Int) (i Int) (i1 Int) (i2 Int) (i3 Int) (i4 Int)) (=> (and (=> (= i3 i4) (= vacker_0 vacker_1)) (=> (= i1 i2) (= vacker_01 vacker_11)) (while_15_1_122_abs i3 vacker_0 i3 vacker_0 i1 vacker_01 i1 vacker_01 N i) (while_15_1_122_abs i3 vacker_0 i3 vacker_0 i1 vacker_01 i2 vacker_01 N i) (while_15_1_122_abs i3 vacker_0 i3 vacker_0 i2 vacker_01 i1 vacker_01 N i) (while_15_1_122_abs i3 vacker_0 i3 vacker_0 i2 vacker_01 i2 vacker_01 N i) (while_15_1_122_abs i3 vacker_0 i4 vacker_0 i1 vacker_01 i1 vacker_01 N i) (while_15_1_122_abs i3 vacker_0 i4 vacker_0 i1 vacker_01 i2 vacker_01 N i) (while_15_1_122_abs i3 vacker_0 i4 vacker_0 i2 vacker_01 i1 vacker_01 N i) (while_15_1_122_abs i3 vacker_0 i4 vacker_0 i2 vacker_01 i2 vacker_01 N i) (while_15_1_122_abs i4 vacker_0 i3 vacker_0 i1 vacker_01 i1 vacker_01 N i) (while_15_1_122_abs i4 vacker_0 i3 vacker_0 i1 vacker_01 i2 vacker_01 N i) (while_15_1_122_abs i4 vacker_0 i3 vacker_0 i2 vacker_01 i1 vacker_01 N i) (while_15_1_122_abs i4 vacker_0 i3 vacker_0 i2 vacker_01 i2 vacker_01 N i) (while_15_1_122_abs i4 vacker_0 i4 vacker_0 i1 vacker_01 i1 vacker_01 N i) (while_15_1_122_abs i4 vacker_0 i4 vacker_0 i1 vacker_01 i2 vacker_01 N i) (while_15_1_122_abs i4 vacker_0 i4 vacker_0 i2 vacker_01 i1 vacker_01 N i) (while_15_1_122_abs i4 vacker_0 i4 vacker_0 i2 vacker_01 i2 vacker_01 N i) (< i N)) (assert_16_12_96_abs i4 vacker_0 i3 vacker_0 i2 vacker_01 i1 vacker_01 N i))))
(assert (forall ( (vacker_1 Int) (vacker_0 Int) (vacker_11 Int) (vacker_01 Int) (N Int) (i Int) (i1 Int) (i2 Int) (i3 Int) (i4 Int)) (=> (and (=> (= i3 i4) (= vacker_0 vacker_1)) (=> (= i1 i2) (= vacker_01 vacker_11)) (while_15_1_122_abs i3 vacker_0 i3 vacker_0 i1 vacker_01 i1 vacker_01 N i) (while_15_1_122_abs i3 vacker_0 i3 vacker_0 i1 vacker_01 i2 vacker_01 N i) (while_15_1_122_abs i3 vacker_0 i3 vacker_0 i2 vacker_01 i1 vacker_01 N i) (while_15_1_122_abs i3 vacker_0 i3 vacker_0 i2 vacker_01 i2 vacker_01 N i) (while_15_1_122_abs i3 vacker_0 i4 vacker_0 i1 vacker_01 i1 vacker_01 N i) (while_15_1_122_abs i3 vacker_0 i4 vacker_0 i1 vacker_01 i2 vacker_01 N i) (while_15_1_122_abs i3 vacker_0 i4 vacker_0 i2 vacker_01 i1 vacker_01 N i) (while_15_1_122_abs i3 vacker_0 i4 vacker_0 i2 vacker_01 i2 vacker_01 N i) (while_15_1_122_abs i4 vacker_0 i3 vacker_0 i1 vacker_01 i1 vacker_01 N i) (while_15_1_122_abs i4 vacker_0 i3 vacker_0 i1 vacker_01 i2 vacker_01 N i) (while_15_1_122_abs i4 vacker_0 i3 vacker_0 i2 vacker_01 i1 vacker_01 N i) (while_15_1_122_abs i4 vacker_0 i3 vacker_0 i2 vacker_01 i2 vacker_01 N i) (while_15_1_122_abs i4 vacker_0 i4 vacker_0 i1 vacker_01 i1 vacker_01 N i) (while_15_1_122_abs i4 vacker_0 i4 vacker_0 i1 vacker_01 i2 vacker_01 N i) (while_15_1_122_abs i4 vacker_0 i4 vacker_0 i2 vacker_01 i1 vacker_01 N i) (while_15_1_122_abs i4 vacker_0 i4 vacker_0 i2 vacker_01 i2 vacker_01 N i) (not (< i N))) (assign_21_1_128_abs i4 vacker_0 i3 vacker_0 i2 vacker_01 i1 vacker_01 N i))))
;
;(assert)  (((0<=k)&&(k<i))=>(a_copy[k]==a[k]))
(assert (forall ( (k Int) (i Int) (N Int) (acker1 Int) (acker Int)) (=> (and (assert_16_12_96_abs k acker k acker k acker1 k acker1 N i) (<= 0 k) (< k i)) (= acker acker1))))
(assert (forall ( (i Int) (N Int) (vacker_1 Int) (vacker_0 Int) (vacker_11 Int) (vacker_01 Int) (i1 Int) (i2 Int) (i3 Int) (i4 Int)) (=> (and (=> (= i1 i2) (= vacker_0 vacker_1)) (=> (= i3 i4) (= vacker_01 vacker_11)) (assert_16_12_96_abs i3 vacker_01 i3 vacker_01 i1 vacker_0 i1 vacker_0 N i) (assert_16_12_96_abs i3 vacker_01 i3 vacker_01 i1 vacker_0 i2 vacker_0 N i) (assert_16_12_96_abs i3 vacker_01 i3 vacker_01 i2 vacker_0 i1 vacker_0 N i) (assert_16_12_96_abs i3 vacker_01 i3 vacker_01 i2 vacker_0 i2 vacker_0 N i) (assert_16_12_96_abs i3 vacker_01 i4 vacker_01 i1 vacker_0 i1 vacker_0 N i) (assert_16_12_96_abs i3 vacker_01 i4 vacker_01 i1 vacker_0 i2 vacker_0 N i) (assert_16_12_96_abs i3 vacker_01 i4 vacker_01 i2 vacker_0 i1 vacker_0 N i) (assert_16_12_96_abs i3 vacker_01 i4 vacker_01 i2 vacker_0 i2 vacker_0 N i) (assert_16_12_96_abs i4 vacker_01 i3 vacker_01 i1 vacker_0 i1 vacker_0 N i) (assert_16_12_96_abs i4 vacker_01 i3 vacker_01 i1 vacker_0 i2 vacker_0 N i) (assert_16_12_96_abs i4 vacker_01 i3 vacker_01 i2 vacker_0 i1 vacker_0 N i) (assert_16_12_96_abs i4 vacker_01 i3 vacker_01 i2 vacker_0 i2 vacker_0 N i) (assert_16_12_96_abs i4 vacker_01 i4 vacker_01 i1 vacker_0 i1 vacker_0 N i) (assert_16_12_96_abs i4 vacker_01 i4 vacker_01 i1 vacker_0 i2 vacker_0 N i) (assert_16_12_96_abs i4 vacker_01 i4 vacker_01 i2 vacker_0 i1 vacker_0 N i) (assert_16_12_96_abs i4 vacker_01 i4 vacker_01 i2 vacker_0 i2 vacker_0 N i)) (arrayassign_17_5_110_abs i4 vacker_01 i3 vacker_01 i2 vacker_0 i1 vacker_0 N i))))
;
;(aassign) a_copy[i] := a[i]
(assert (forall ( (i Int) (N Int) (vacker_2 Int) (vacker_1 Int) (vacker_0 Int) (vacker_11 Int) (vacker_01 Int) (i1 Int) (i2 Int) (i3 Int) (i4 Int)) (=> (and (=> (= i i1) (= vacker_0 vacker_1)) (=> (= i i2) (= vacker_0 vacker_2)) (=> (= i1 i2) (= vacker_1 vacker_2)) (=> (= i3 i4) (= vacker_01 vacker_11)) (arrayassign_17_5_110_abs i3 vacker_01 i3 vacker_01 i vacker_0 i vacker_0 N i) (arrayassign_17_5_110_abs i3 vacker_01 i3 vacker_01 i vacker_0 i1 vacker_0 N i) (arrayassign_17_5_110_abs i3 vacker_01 i3 vacker_01 i vacker_0 i2 vacker_0 N i) (arrayassign_17_5_110_abs i3 vacker_01 i3 vacker_01 i1 vacker_0 i vacker_0 N i) (arrayassign_17_5_110_abs i3 vacker_01 i3 vacker_01 i1 vacker_0 i1 vacker_0 N i) (arrayassign_17_5_110_abs i3 vacker_01 i3 vacker_01 i1 vacker_0 i2 vacker_0 N i) (arrayassign_17_5_110_abs i3 vacker_01 i3 vacker_01 i2 vacker_0 i vacker_0 N i) (arrayassign_17_5_110_abs i3 vacker_01 i3 vacker_01 i2 vacker_0 i1 vacker_0 N i) (arrayassign_17_5_110_abs i3 vacker_01 i3 vacker_01 i2 vacker_0 i2 vacker_0 N i) (arrayassign_17_5_110_abs i3 vacker_01 i4 vacker_01 i vacker_0 i vacker_0 N i) (arrayassign_17_5_110_abs i3 vacker_01 i4 vacker_01 i vacker_0 i1 vacker_0 N i) (arrayassign_17_5_110_abs i3 vacker_01 i4 vacker_01 i vacker_0 i2 vacker_0 N i) (arrayassign_17_5_110_abs i3 vacker_01 i4 vacker_01 i1 vacker_0 i vacker_0 N i) (arrayassign_17_5_110_abs i3 vacker_01 i4 vacker_01 i1 vacker_0 i1 vacker_0 N i) (arrayassign_17_5_110_abs i3 vacker_01 i4 vacker_01 i1 vacker_0 i2 vacker_0 N i) (arrayassign_17_5_110_abs i3 vacker_01 i4 vacker_01 i2 vacker_0 i vacker_0 N i) (arrayassign_17_5_110_abs i3 vacker_01 i4 vacker_01 i2 vacker_0 i1 vacker_0 N i) (arrayassign_17_5_110_abs i3 vacker_01 i4 vacker_01 i2 vacker_0 i2 vacker_0 N i) (arrayassign_17_5_110_abs i4 vacker_01 i3 vacker_01 i vacker_0 i vacker_0 N i) (arrayassign_17_5_110_abs i4 vacker_01 i3 vacker_01 i vacker_0 i1 vacker_0 N i) (arrayassign_17_5_110_abs i4 vacker_01 i3 vacker_01 i vacker_0 i2 vacker_0 N i) (arrayassign_17_5_110_abs i4 vacker_01 i3 vacker_01 i1 vacker_0 i vacker_0 N i) (arrayassign_17_5_110_abs i4 vacker_01 i3 vacker_01 i1 vacker_0 i1 vacker_0 N i) (arrayassign_17_5_110_abs i4 vacker_01 i3 vacker_01 i1 vacker_0 i2 vacker_0 N i) (arrayassign_17_5_110_abs i4 vacker_01 i3 vacker_01 i2 vacker_0 i vacker_0 N i) (arrayassign_17_5_110_abs i4 vacker_01 i3 vacker_01 i2 vacker_0 i1 vacker_0 N i) (arrayassign_17_5_110_abs i4 vacker_01 i3 vacker_01 i2 vacker_0 i2 vacker_0 N i) (arrayassign_17_5_110_abs i4 vacker_01 i4 vacker_01 i vacker_0 i vacker_0 N i) (arrayassign_17_5_110_abs i4 vacker_01 i4 vacker_01 i vacker_0 i1 vacker_0 N i) (arrayassign_17_5_110_abs i4 vacker_01 i4 vacker_01 i vacker_0 i2 vacker_0 N i) (arrayassign_17_5_110_abs i4 vacker_01 i4 vacker_01 i1 vacker_0 i vacker_0 N i) (arrayassign_17_5_110_abs i4 vacker_01 i4 vacker_01 i1 vacker_0 i1 vacker_0 N i) (arrayassign_17_5_110_abs i4 vacker_01 i4 vacker_01 i1 vacker_0 i2 vacker_0 N i) (arrayassign_17_5_110_abs i4 vacker_01 i4 vacker_01 i2 vacker_0 i vacker_0 N i) (arrayassign_17_5_110_abs i4 vacker_01 i4 vacker_01 i2 vacker_0 i1 vacker_0 N i) (arrayassign_17_5_110_abs i4 vacker_01 i4 vacker_01 i2 vacker_0 i2 vacker_0 N i)) (assign_18_5_119_abs i4 (ite (= i i4) vacker_0 vacker_01) i3 (ite (= i i3) vacker_0 vacker_01) i2 vacker_0 i1 vacker_0 N i))))
;
;(assign)  i := (i+1)
(assert (forall ( (i Int) (N Int) (vacker_1 Int) (vacker_0 Int) (vacker_11 Int) (vacker_01 Int) (i1 Int) (i2 Int) (i3 Int) (i4 Int)) (=> (and (=> (= i1 i2) (= vacker_0 vacker_1)) (=> (= i3 i4) (= vacker_01 vacker_11)) (assign_18_5_119_abs i3 vacker_01 i3 vacker_01 i1 vacker_0 i1 vacker_0 N i) (assign_18_5_119_abs i3 vacker_01 i3 vacker_01 i1 vacker_0 i2 vacker_0 N i) (assign_18_5_119_abs i3 vacker_01 i3 vacker_01 i2 vacker_0 i1 vacker_0 N i) (assign_18_5_119_abs i3 vacker_01 i3 vacker_01 i2 vacker_0 i2 vacker_0 N i) (assign_18_5_119_abs i3 vacker_01 i4 vacker_01 i1 vacker_0 i1 vacker_0 N i) (assign_18_5_119_abs i3 vacker_01 i4 vacker_01 i1 vacker_0 i2 vacker_0 N i) (assign_18_5_119_abs i3 vacker_01 i4 vacker_01 i2 vacker_0 i1 vacker_0 N i) (assign_18_5_119_abs i3 vacker_01 i4 vacker_01 i2 vacker_0 i2 vacker_0 N i) (assign_18_5_119_abs i4 vacker_01 i3 vacker_01 i1 vacker_0 i1 vacker_0 N i) (assign_18_5_119_abs i4 vacker_01 i3 vacker_01 i1 vacker_0 i2 vacker_0 N i) (assign_18_5_119_abs i4 vacker_01 i3 vacker_01 i2 vacker_0 i1 vacker_0 N i) (assign_18_5_119_abs i4 vacker_01 i3 vacker_01 i2 vacker_0 i2 vacker_0 N i) (assign_18_5_119_abs i4 vacker_01 i4 vacker_01 i1 vacker_0 i1 vacker_0 N i) (assign_18_5_119_abs i4 vacker_01 i4 vacker_01 i1 vacker_0 i2 vacker_0 N i) (assign_18_5_119_abs i4 vacker_01 i4 vacker_01 i2 vacker_0 i1 vacker_0 N i) (assign_18_5_119_abs i4 vacker_01 i4 vacker_01 i2 vacker_0 i2 vacker_0 N i)) (while_15_1_122_abs i4 vacker_01 i3 vacker_01 i2 vacker_0 i1 vacker_0 N (+ i 1)))))
;
;(assign)  i := 0
(assert (forall ( (i Int) (N Int) (vacker_1 Int) (vacker_0 Int) (vacker_11 Int) (vacker_01 Int) (i1 Int) (i2 Int) (i3 Int) (i4 Int)) (=> (and (=> (= i1 i2) (= vacker_0 vacker_1)) (=> (= i3 i4) (= vacker_01 vacker_11)) (assign_21_1_128_abs i3 vacker_01 i3 vacker_01 i1 vacker_0 i1 vacker_0 N i) (assign_21_1_128_abs i3 vacker_01 i3 vacker_01 i1 vacker_0 i2 vacker_0 N i) (assign_21_1_128_abs i3 vacker_01 i3 vacker_01 i2 vacker_0 i1 vacker_0 N i) (assign_21_1_128_abs i3 vacker_01 i3 vacker_01 i2 vacker_0 i2 vacker_0 N i) (assign_21_1_128_abs i3 vacker_01 i4 vacker_01 i1 vacker_0 i1 vacker_0 N i) (assign_21_1_128_abs i3 vacker_01 i4 vacker_01 i1 vacker_0 i2 vacker_0 N i) (assign_21_1_128_abs i3 vacker_01 i4 vacker_01 i2 vacker_0 i1 vacker_0 N i) (assign_21_1_128_abs i3 vacker_01 i4 vacker_01 i2 vacker_0 i2 vacker_0 N i) (assign_21_1_128_abs i4 vacker_01 i3 vacker_01 i1 vacker_0 i1 vacker_0 N i) (assign_21_1_128_abs i4 vacker_01 i3 vacker_01 i1 vacker_0 i2 vacker_0 N i) (assign_21_1_128_abs i4 vacker_01 i3 vacker_01 i2 vacker_0 i1 vacker_0 N i) (assign_21_1_128_abs i4 vacker_01 i3 vacker_01 i2 vacker_0 i2 vacker_0 N i) (assign_21_1_128_abs i4 vacker_01 i4 vacker_01 i1 vacker_0 i1 vacker_0 N i) (assign_21_1_128_abs i4 vacker_01 i4 vacker_01 i1 vacker_0 i2 vacker_0 N i) (assign_21_1_128_abs i4 vacker_01 i4 vacker_01 i2 vacker_0 i1 vacker_0 N i) (assign_21_1_128_abs i4 vacker_01 i4 vacker_01 i2 vacker_0 i2 vacker_0 N i)) (while_22_1_196_abs i4 vacker_01 i3 vacker_01 i2 vacker_0 i1 vacker_0 N 0))))
;
;(while)   while((i<N))
(assert (forall ( (vacker_1 Int) (vacker_0 Int) (vacker_11 Int) (vacker_01 Int) (N Int) (i Int) (i1 Int) (i2 Int) (i3 Int) (i4 Int)) (=> (and (=> (= i3 i4) (= vacker_0 vacker_1)) (=> (= i1 i2) (= vacker_01 vacker_11)) (while_22_1_196_abs i3 vacker_0 i3 vacker_0 i1 vacker_01 i1 vacker_01 N i) (while_22_1_196_abs i3 vacker_0 i3 vacker_0 i1 vacker_01 i2 vacker_01 N i) (while_22_1_196_abs i3 vacker_0 i3 vacker_0 i2 vacker_01 i1 vacker_01 N i) (while_22_1_196_abs i3 vacker_0 i3 vacker_0 i2 vacker_01 i2 vacker_01 N i) (while_22_1_196_abs i3 vacker_0 i4 vacker_0 i1 vacker_01 i1 vacker_01 N i) (while_22_1_196_abs i3 vacker_0 i4 vacker_0 i1 vacker_01 i2 vacker_01 N i) (while_22_1_196_abs i3 vacker_0 i4 vacker_0 i2 vacker_01 i1 vacker_01 N i) (while_22_1_196_abs i3 vacker_0 i4 vacker_0 i2 vacker_01 i2 vacker_01 N i) (while_22_1_196_abs i4 vacker_0 i3 vacker_0 i1 vacker_01 i1 vacker_01 N i) (while_22_1_196_abs i4 vacker_0 i3 vacker_0 i1 vacker_01 i2 vacker_01 N i) (while_22_1_196_abs i4 vacker_0 i3 vacker_0 i2 vacker_01 i1 vacker_01 N i) (while_22_1_196_abs i4 vacker_0 i3 vacker_0 i2 vacker_01 i2 vacker_01 N i) (while_22_1_196_abs i4 vacker_0 i4 vacker_0 i1 vacker_01 i1 vacker_01 N i) (while_22_1_196_abs i4 vacker_0 i4 vacker_0 i1 vacker_01 i2 vacker_01 N i) (while_22_1_196_abs i4 vacker_0 i4 vacker_0 i2 vacker_01 i1 vacker_01 N i) (while_22_1_196_abs i4 vacker_0 i4 vacker_0 i2 vacker_01 i2 vacker_01 N i) (< i N)) (assert_23_12_166_abs i4 vacker_0 i3 vacker_0 i2 vacker_01 i1 vacker_01 N i))))
(assert (forall ( (vacker_1 Int) (vacker_0 Int) (vacker_11 Int) (vacker_01 Int) (N Int) (i Int) (i1 Int) (i2 Int) (i3 Int) (i4 Int)) (=> (and (=> (= i3 i4) (= vacker_0 vacker_1)) (=> (= i1 i2) (= vacker_01 vacker_11)) (while_22_1_196_abs i3 vacker_0 i3 vacker_0 i1 vacker_01 i1 vacker_01 N i) (while_22_1_196_abs i3 vacker_0 i3 vacker_0 i1 vacker_01 i2 vacker_01 N i) (while_22_1_196_abs i3 vacker_0 i3 vacker_0 i2 vacker_01 i1 vacker_01 N i) (while_22_1_196_abs i3 vacker_0 i3 vacker_0 i2 vacker_01 i2 vacker_01 N i) (while_22_1_196_abs i3 vacker_0 i4 vacker_0 i1 vacker_01 i1 vacker_01 N i) (while_22_1_196_abs i3 vacker_0 i4 vacker_0 i1 vacker_01 i2 vacker_01 N i) (while_22_1_196_abs i3 vacker_0 i4 vacker_0 i2 vacker_01 i1 vacker_01 N i) (while_22_1_196_abs i3 vacker_0 i4 vacker_0 i2 vacker_01 i2 vacker_01 N i) (while_22_1_196_abs i4 vacker_0 i3 vacker_0 i1 vacker_01 i1 vacker_01 N i) (while_22_1_196_abs i4 vacker_0 i3 vacker_0 i1 vacker_01 i2 vacker_01 N i) (while_22_1_196_abs i4 vacker_0 i3 vacker_0 i2 vacker_01 i1 vacker_01 N i) (while_22_1_196_abs i4 vacker_0 i3 vacker_0 i2 vacker_01 i2 vacker_01 N i) (while_22_1_196_abs i4 vacker_0 i4 vacker_0 i1 vacker_01 i1 vacker_01 N i) (while_22_1_196_abs i4 vacker_0 i4 vacker_0 i1 vacker_01 i2 vacker_01 N i) (while_22_1_196_abs i4 vacker_0 i4 vacker_0 i2 vacker_01 i1 vacker_01 N i) (while_22_1_196_abs i4 vacker_0 i4 vacker_0 i2 vacker_01 i2 vacker_01 N i) (not (< i N))) (end_abs i4 vacker_0 i3 vacker_0 i2 vacker_01 i1 vacker_01 N i))))
;
;(assert)  (((0<=k)&&(k<N))=>(a_copy[k]==a[k]))
(assert (forall ( (k Int) (i Int) (N Int) (acker1 Int) (acker Int)) (=> (and (assert_23_12_166_abs k acker k acker k acker1 k acker1 N i) (<= 0 k) (< k N)) (= acker acker1))))
(assert (forall ( (i Int) (N Int) (vacker_1 Int) (vacker_0 Int) (vacker_11 Int) (vacker_01 Int) (i1 Int) (i2 Int) (i3 Int) (i4 Int)) (=> (and (=> (= i1 i2) (= vacker_0 vacker_1)) (=> (= i3 i4) (= vacker_01 vacker_11)) (assert_23_12_166_abs i3 vacker_01 i3 vacker_01 i1 vacker_0 i1 vacker_0 N i) (assert_23_12_166_abs i3 vacker_01 i3 vacker_01 i1 vacker_0 i2 vacker_0 N i) (assert_23_12_166_abs i3 vacker_01 i3 vacker_01 i2 vacker_0 i1 vacker_0 N i) (assert_23_12_166_abs i3 vacker_01 i3 vacker_01 i2 vacker_0 i2 vacker_0 N i) (assert_23_12_166_abs i3 vacker_01 i4 vacker_01 i1 vacker_0 i1 vacker_0 N i) (assert_23_12_166_abs i3 vacker_01 i4 vacker_01 i1 vacker_0 i2 vacker_0 N i) (assert_23_12_166_abs i3 vacker_01 i4 vacker_01 i2 vacker_0 i1 vacker_0 N i) (assert_23_12_166_abs i3 vacker_01 i4 vacker_01 i2 vacker_0 i2 vacker_0 N i) (assert_23_12_166_abs i4 vacker_01 i3 vacker_01 i1 vacker_0 i1 vacker_0 N i) (assert_23_12_166_abs i4 vacker_01 i3 vacker_01 i1 vacker_0 i2 vacker_0 N i) (assert_23_12_166_abs i4 vacker_01 i3 vacker_01 i2 vacker_0 i1 vacker_0 N i) (assert_23_12_166_abs i4 vacker_01 i3 vacker_01 i2 vacker_0 i2 vacker_0 N i) (assert_23_12_166_abs i4 vacker_01 i4 vacker_01 i1 vacker_0 i1 vacker_0 N i) (assert_23_12_166_abs i4 vacker_01 i4 vacker_01 i1 vacker_0 i2 vacker_0 N i) (assert_23_12_166_abs i4 vacker_01 i4 vacker_01 i2 vacker_0 i1 vacker_0 N i) (assert_23_12_166_abs i4 vacker_01 i4 vacker_01 i2 vacker_0 i2 vacker_0 N i)) (assert_24_5_184_abs i4 vacker_01 i3 vacker_01 i2 vacker_0 i1 vacker_0 N i))))
;
;(assert)  (a_copy[i]==a[i])
(assert (forall ( (i Int) (N Int) (acker1 Int) (acker Int)) (=> (assert_24_5_184_abs i acker i acker i acker1 i acker1 N i) (= acker acker1))))
(assert (forall ( (i Int) (N Int) (vacker_1 Int) (vacker_0 Int) (vacker_11 Int) (vacker_01 Int) (i1 Int) (i2 Int) (i3 Int) (i4 Int)) (=> (and (=> (= i1 i2) (= vacker_0 vacker_1)) (=> (= i3 i4) (= vacker_01 vacker_11)) (assert_24_5_184_abs i3 vacker_01 i3 vacker_01 i1 vacker_0 i1 vacker_0 N i) (assert_24_5_184_abs i3 vacker_01 i3 vacker_01 i1 vacker_0 i2 vacker_0 N i) (assert_24_5_184_abs i3 vacker_01 i3 vacker_01 i2 vacker_0 i1 vacker_0 N i) (assert_24_5_184_abs i3 vacker_01 i3 vacker_01 i2 vacker_0 i2 vacker_0 N i) (assert_24_5_184_abs i3 vacker_01 i4 vacker_01 i1 vacker_0 i1 vacker_0 N i) (assert_24_5_184_abs i3 vacker_01 i4 vacker_01 i1 vacker_0 i2 vacker_0 N i) (assert_24_5_184_abs i3 vacker_01 i4 vacker_01 i2 vacker_0 i1 vacker_0 N i) (assert_24_5_184_abs i3 vacker_01 i4 vacker_01 i2 vacker_0 i2 vacker_0 N i) (assert_24_5_184_abs i4 vacker_01 i3 vacker_01 i1 vacker_0 i1 vacker_0 N i) (assert_24_5_184_abs i4 vacker_01 i3 vacker_01 i1 vacker_0 i2 vacker_0 N i) (assert_24_5_184_abs i4 vacker_01 i3 vacker_01 i2 vacker_0 i1 vacker_0 N i) (assert_24_5_184_abs i4 vacker_01 i3 vacker_01 i2 vacker_0 i2 vacker_0 N i) (assert_24_5_184_abs i4 vacker_01 i4 vacker_01 i1 vacker_0 i1 vacker_0 N i) (assert_24_5_184_abs i4 vacker_01 i4 vacker_01 i1 vacker_0 i2 vacker_0 N i) (assert_24_5_184_abs i4 vacker_01 i4 vacker_01 i2 vacker_0 i1 vacker_0 N i) (assert_24_5_184_abs i4 vacker_01 i4 vacker_01 i2 vacker_0 i2 vacker_0 N i)) (assign_25_5_193_abs i4 vacker_01 i3 vacker_01 i2 vacker_0 i1 vacker_0 N i))))
;
;(assign)  i := (i+1)
(assert (forall ( (i Int) (N Int) (vacker_1 Int) (vacker_0 Int) (vacker_11 Int) (vacker_01 Int) (i1 Int) (i2 Int) (i3 Int) (i4 Int)) (=> (and (=> (= i1 i2) (= vacker_0 vacker_1)) (=> (= i3 i4) (= vacker_01 vacker_11)) (assign_25_5_193_abs i3 vacker_01 i3 vacker_01 i1 vacker_0 i1 vacker_0 N i) (assign_25_5_193_abs i3 vacker_01 i3 vacker_01 i1 vacker_0 i2 vacker_0 N i) (assign_25_5_193_abs i3 vacker_01 i3 vacker_01 i2 vacker_0 i1 vacker_0 N i) (assign_25_5_193_abs i3 vacker_01 i3 vacker_01 i2 vacker_0 i2 vacker_0 N i) (assign_25_5_193_abs i3 vacker_01 i4 vacker_01 i1 vacker_0 i1 vacker_0 N i) (assign_25_5_193_abs i3 vacker_01 i4 vacker_01 i1 vacker_0 i2 vacker_0 N i) (assign_25_5_193_abs i3 vacker_01 i4 vacker_01 i2 vacker_0 i1 vacker_0 N i) (assign_25_5_193_abs i3 vacker_01 i4 vacker_01 i2 vacker_0 i2 vacker_0 N i) (assign_25_5_193_abs i4 vacker_01 i3 vacker_01 i1 vacker_0 i1 vacker_0 N i) (assign_25_5_193_abs i4 vacker_01 i3 vacker_01 i1 vacker_0 i2 vacker_0 N i) (assign_25_5_193_abs i4 vacker_01 i3 vacker_01 i2 vacker_0 i1 vacker_0 N i) (assign_25_5_193_abs i4 vacker_01 i3 vacker_01 i2 vacker_0 i2 vacker_0 N i) (assign_25_5_193_abs i4 vacker_01 i4 vacker_01 i1 vacker_0 i1 vacker_0 N i) (assign_25_5_193_abs i4 vacker_01 i4 vacker_01 i1 vacker_0 i2 vacker_0 N i) (assign_25_5_193_abs i4 vacker_01 i4 vacker_01 i2 vacker_0 i1 vacker_0 N i) (assign_25_5_193_abs i4 vacker_01 i4 vacker_01 i2 vacker_0 i2 vacker_0 N i)) (while_22_1_196_abs i4 vacker_01 i3 vacker_01 i2 vacker_0 i1 vacker_0 N (+ i 1)))))
(check-sat)
